NAME : TSP_INST.7965060.tour
COMMENT : Length = 7965060
COMMENT : Found by LKH [Keld Helsgaun] Sat Oct 18 11:07:55 2025
TYPE : TOUR
DIMENSION : 100
TOUR_SECTION
1
46
71
43
20
40
52
3
18
59
29
68
28
6
58
64
27
82
57
24
21
12
93
4
98
75
55
97
23
61
56
69
60
11
83
77
26
38
53
50
17
14
73
33
51
78
25
81
79
9
54
34
76
84
66
45
35
70
32
13
41
37
80
72
87
96
95
30
44
39
92
91
63
48
16
19
47
36
65
85
86
88
94
49
2
67
22
42
99
31
7
90
74
8
5
10
89
15
100
62
-1
EOF
